60
1 0 2
2 1 2
3 1 10
3 2 3
4 2 6
4 3 1
5 3 9
6 1 9
6 2 7
6 4 2
6 5 8
7 0 9
7 3 3
7 4 2
7 6 8
8 2 9
8 4 5
8 6 9
8 7 9
9 0 8
9 1 10
9 4 6
9 5 2
9 6 1
9 8 10
10 0 5
10 1 3
10 2 1
10 3 3
10 8 8
10 9 4
11 2 5
11 5 5
11 6 1
12 0 10
12 1 2
12 3 5
12 7 4
12 8 9
12 10 4
12 11 2
13 2 10
13 3 5
13 4 8
13 5 4
13 7 4
13 8 7
13 9 6
13 10 6
13 11 9
13 12 3
14 1 4
14 2 7
14 4 6
14 5 6
14 6 4
14 7 2
14 9 4
14 11 4
15 0 7
15 4 9
15 6 6
15 9 3
15 10 9
15 11 8
15 13 4
16 1 6
16 2 9
16 5 10
16 6 2
16 7 7
16 10 9
16 12 1
16 14 1
16 15 4
17 0 5
17 4 2
17 6 6
17 12 7
17 14 6
18 0 1
18 1 2
18 7 1
18 8 7
18 9 8
18 11 3
18 16 3
19 0 5
19 1 4
19 2 4
19 4 1
19 6 10
19 7 2
19 9 5
19 10 9
19 11 3
19 12 1
19 13 10
19 14 2
19 15 10
19 16 6
19 17 2
20 0 5
20 2 6
20 3 2
20 4 8
20 5 6
20 8 1
20 9 1
20 10 1
20 12 7
20 13 2
20 14 2
20 16 7
21 3 2
21 9 10
21 10 6
21 12 10
21 14 5
21 20 8
22 2 3
22 3 7
22 5 2
22 9 8
22 10 5
22 11 2
22 12 7
22 13 7
22 15 7
22 16 8
22 17 10
22 18 6
23 0 7
23 1 2
23 2 6
23 8 1
23 9 9
23 10 9
23 11 2
23 12 5
23 14 1
23 15 6
23 17 9
23 18 8
23 19 7
23 20 8
23 21 2
24 0 10
24 1 4
24 2 10
24 3 3
24 5 1
24 6 5
24 7 7
24 10 1
24 11 8
24 14 6
24 15 8
24 16 1
24 19 6
24 21 7
24 22 1
24 23 3
25 0 7
25 1 10
25 2 2
25 4 1
25 5 1
25 7 5
25 9 10
25 10 7
25 12 5
25 13 10
25 14 10
25 24 7
26 0 9
26 2 7
26 4 9
26 5 1
26 8 6
26 9 1
26 10 2
26 11 4
26 12 3
26 14 2
26 15 6
26 17 7
26 18 3
26 19 6
26 20 10
26 21 9
26 22 6
26 25 10
27 0 7
27 2 1
27 3 1
27 4 4
27 6 7
27 7 10
27 8 3
27 9 4
27 10 8
27 11 1
27 12 5
27 14 5
27 15 3
27 16 3
27 17 1
27 18 10
27 20 2
27 21 5
27 22 7
27 26 9
28 0 1
28 2 2
28 5 9
28 12 3
28 13 2
28 14 2
28 15 3
28 16 1
28 17 8
28 18 10
28 20 4
28 21 5
28 22 9
28 23 7
28 25 3
28 26 2
28 27 4
29 0 3
29 2 9
29 3 4
29 4 3
29 5 7
29 6 6
29 11 7
29 13 5
29 14 10
29 15 8
29 16 1
29 18 3
29 19 8
29 20 8
29 21 6
29 22 8
29 23 10
29 24 3
29 25 1
29 26 9
30 0 7
30 1 10
30 3 3
30 4 6
30 5 9
30 6 2
30 8 4
30 9 8
30 10 7
30 11 3
30 12 5
30 13 5
30 14 4
30 15 8
30 17 7
30 18 1
30 19 2
30 20 7
30 21 3
30 23 2
30 24 9
30 25 3
30 27 7
30 29 9
31 0 10
31 2 7
31 4 5
31 5 1
31 6 5
31 7 6
31 9 3
31 10 9
31 13 4
31 14 9
31 18 9
31 19 3
31 21 5
31 24 6
31 25 9
31 26 4
31 27 3
31 29 2
31 30 4
32 0 2
32 3 10
32 5 9
32 8 9
32 9 2
32 10 5
32 12 5
32 13 2
32 14 2
32 16 5
32 17 8
32 18 4
32 20 10
32 21 9
32 22 5
32 23 1
32 25 5
32 28 6
32 30 7
33 2 5
33 3 1
33 4 7
33 7 8
33 11 3
33 12 10
33 13 1
33 14 10
33 16 2
33 17 3
33 19 7
33 20 8
33 22 1
33 24 7
33 25 10
33 27 10
33 29 5
33 30 9
33 31 10
33 32 1
34 0 5
34 1 8
34 2 3
34 5 7
34 8 7
34 9 8
34 11 10
34 13 3
34 14 4
34 17 8
34 18 9
34 21 1
34 22 9
34 23 1
34 24 1
34 27 7
34 29 6
34 30 2
34 33 10
35 0 7
35 1 2
35 2 6
35 3 10
35 4 1
35 7 9
35 8 8
35 11 8
35 13 2
35 16 5
35 17 9
35 18 10
35 19 8
35 20 2
35 21 7
35 22 8
35 23 7
35 26 3
35 27 8
35 28 9
35 29 2
35 30 6
35 32 6
36 0 5
36 1 4
36 2 4
36 4 1
36 5 5
36 6 9
36 7 7
36 8 6
36 11 3
36 15 5
36 16 7
36 17 2
36 20 7
36 22 5
36 24 7
36 28 9
36 29 8
36 30 1
36 32 4
36 33 3
36 34 5
37 3 3
37 4 3
37 5 10
37 6 3
37 7 6
37 8 2
37 10 10
37 12 9
37 13 10
37 14 2
37 15 6
37 17 6
37 18 7
37 19 4
37 20 6
37 21 8
37 23 5
37 26 3
37 27 10
37 28 3
37 29 6
37 30 6
37 31 6
37 33 10
37 34 4
37 35 7
37 36 8
38 0 5
38 1 10
38 3 9
38 4 3
38 5 6
38 6 8
38 8 10
38 10 7
38 11 6
38 12 1
38 13 4
38 14 4
38 15 3
38 16 1
38 17 3
38 19 6
38 21 9
38 23 8
38 24 7
38 26 5
38 27 6
38 28 5
38 29 1
38 32 1
38 33 10
38 34 5
38 36 1
38 37 4
39 1 6
39 2 4
39 3 5
39 5 1
39 6 4
39 8 8
39 9 3
39 10 4
39 12 8
39 16 2
39 17 4
39 20 10
39 23 7
39 24 10
39 25 4
39 27 7
39 28 8
39 30 2
39 31 2
39 32 7
39 33 5
39 34 7
39 35 4
39 37 9
39 38 4
40 0 3
40 1 10
40 2 1
40 3 7
40 4 2
40 5 10
40 6 9
40 7 1
40 8 9
40 10 1
40 11 4
40 14 6
40 15 10
40 16 1
40 17 1
40 18 8
40 19 9
40 21 3
40 24 7
40 25 10
40 26 3
40 28 3
40 31 4
40 33 4
40 34 4
40 35 4
40 37 8
40 38 4
40 39 6
41 1 2
41 4 7
41 6 9
41 10 3
41 11 9
41 12 6
41 13 7
41 14 10
41 15 1
41 17 2
41 19 8
41 21 4
41 22 2
41 25 3
41 26 2
41 27 4
41 28 3
41 30 5
41 31 1
41 32 5
41 33 2
41 35 10
41 36 2
41 38 4
41 39 7
41 40 10
42 1 2
42 3 10
42 4 6
42 6 3
42 7 9
42 8 3
42 9 9
42 13 1
42 14 1
42 16 6
42 17 10
42 18 8
42 19 6
42 21 10
42 22 4
42 26 2
42 27 4
42 28 5
42 29 10
42 32 6
42 35 7
42 36 1
42 39 4
42 41 2
43 3 5
43 5 1
43 7 4
43 8 1
43 9 9
43 10 9
43 12 8
43 14 2
43 15 10
43 16 6
43 21 9
43 23 4
43 24 1
43 27 7
43 28 6
43 29 3
43 33 3
43 34 2
43 35 6
43 38 3
43 42 5
44 0 3
44 2 1
44 3 2
44 5 3
44 6 2
44 10 8
44 12 7
44 17 3
44 19 5
44 23 1
44 25 3
44 26 1
44 28 4
44 31 2
44 35 6
44 37 8
44 38 2
44 39 5
44 40 4
44 41 5
44 42 2
44 43 9
45 3 3
45 5 10
45 6 10
45 7 8
45 8 4
45 10 9
45 11 4
45 12 3
45 13 1
45 14 5
45 15 3
45 16 5
45 18 2
45 21 6
45 23 4
45 25 4
45 26 3
45 28 9
45 29 7
45 31 9
45 33 9
45 35 2
45 36 2
45 37 7
45 38 6
45 39 6
45 41 7
45 42 2
45 44 10
46 0 6
46 1 6
46 3 10
46 5 7
46 9 1
46 10 7
46 12 9
46 14 2
46 16 10
46 18 6
46 19 4
46 20 1
46 21 9
46 26 6
46 30 4
46 31 3
46 33 1
46 34 8
46 35 6
46 36 4
46 37 4
46 38 9
46 39 7
46 40 7
46 42 10
46 43 4
46 45 3
47 0 1
47 1 4
47 3 9
47 4 4
47 5 5
47 6 4
47 7 7
47 11 7
47 12 2
47 13 3
47 15 5
47 16 8
47 17 1
47 19 3
47 21 3
47 22 8
47 26 1
47 27 3
47 28 4
47 30 2
47 31 7
47 32 5
47 33 1
47 34 7
47 37 10
47 40 4
47 43 9
47 44 7
47 45 4
47 46 6
48 0 5
48 1 1
48 3 6
48 5 8
48 6 10
48 7 4
48 9 9
48 12 5
48 13 10
48 15 4
48 16 7
48 17 1
48 18 6
48 19 1
48 21 8
48 22 1
48 23 8
48 25 1
48 30 7
48 31 7
48 32 9
48 33 8
48 34 9
48 35 3
48 37 2
48 38 10
48 40 5
48 41 9
48 42 7
48 45 2
48 46 1
48 47 6
49 1 6
49 3 1
49 4 5
49 5 10
49 7 6
49 8 3
49 10 5
49 12 8
49 13 5
49 14 10
49 15 6
49 18 1
49 19 5
49 20 1
49 21 1
49 23 4
49 24 8
49 27 2
49 28 1
49 29 2
49 30 3
49 32 8
49 33 3
49 34 3
49 35 5
49 36 8
49 37 8
49 41 1
49 44 3
49 47 8
49 48 6
50 0 6
50 1 6
50 4 2
50 5 8
50 6 6
50 7 4
50 8 7
50 11 6
50 12 6
50 13 6
50 14 2
50 15 10
50 16 5
50 17 6
50 18 6
50 22 1
50 23 4
50 27 4
50 28 9
50 30 1
50 31 1
50 33 10
50 34 7
50 36 10
50 37 7
50 41 9
50 43 2
50 44 9
50 45 5
50 46 8
50 47 1
51 2 10
51 3 9
51 4 3
51 6 8
51 7 2
51 8 7
51 9 2
51 11 10
51 12 6
51 14 10
51 15 2
51 17 1
51 19 9
51 20 1
51 21 3
51 22 5
51 27 1
51 28 7
51 29 8
51 31 7
51 33 3
51 35 3
51 36 1
51 37 6
51 39 5
51 40 5
51 42 5
51 43 8
51 44 10
51 45 10
51 47 1
51 48 1
51 49 9
51 50 9
52 1 9
52 2 4
52 4 10
52 6 8
52 8 7
52 9 7
52 10 7
52 11 6
52 12 8
52 13 4
52 14 10
52 15 9
52 17 4
52 20 2
52 22 9
52 24 3
52 26 5
52 30 3
52 31 10
52 33 1
52 34 4
52 35 10
52 37 3
52 38 6
52 39 4
52 40 10
52 41 1
52 42 9
52 43 2
52 45 6
52 46 3
52 47 1
52 49 10
52 50 9
53 0 3
53 1 9
53 2 7
53 5 8
53 9 3
53 10 9
53 11 10
53 12 4
53 14 8
53 17 2
53 18 3
53 19 3
53 20 6
53 21 4
53 22 4
53 23 3
53 24 8
53 26 2
53 27 5
53 30 3
53 31 4
53 32 5
53 35 9
53 36 3
53 37 6
53 38 6
53 40 4
53 41 1
53 42 5
53 44 7
53 47 3
53 48 5
53 50 4
53 51 4
53 52 1
54 0 6
54 2 9
54 4 2
54 7 6
54 8 7
54 9 7
54 10 8
54 11 8
54 15 7
54 17 1
54 19 4
54 21 10
54 23 4
54 26 10
54 27 7
54 28 3
54 30 10
54 32 5
54 33 4
54 36 1
54 42 5
54 43 9
54 44 7
54 46 3
54 47 9
54 49 6
54 50 5
54 52 6
55 3 6
55 4 5
55 5 8
55 8 4
55 11 10
55 12 1
55 13 4
55 14 8
55 15 3
55 16 7
55 18 7
55 19 8
55 20 5
55 21 1
55 22 7
55 23 8
55 25 9
55 26 6
55 28 3
55 29 2
55 30 8
55 31 1
55 33 3
55 34 6
55 35 6
55 36 3
55 38 4
55 39 5
55 40 6
55 42 2
55 45 9
55 46 6
55 47 6
55 48 8
55 50 6
55 51 2
55 54 5
56 1 3
56 4 10
56 5 4
56 6 4
56 7 10
56 8 5
56 11 3
56 12 7
56 14 8
56 15 5
56 16 1
56 17 3
56 19 7
56 21 9
56 22 10
56 23 6
56 25 3
56 26 10
56 28 6
56 30 9
56 31 5
56 32 7
56 34 5
56 35 8
56 38 5
56 42 9
56 47 2
56 48 10
56 49 1
56 52 10
56 53 3
57 0 9
57 1 4
57 4 4
57 5 5
57 6 3
57 7 1
57 10 8
57 11 6
57 12 10
57 13 5
57 15 5
57 16 9
57 19 9
57 20 3
57 21 9
57 23 7
57 24 1
57 26 9
57 27 10
57 28 1
57 34 8
57 37 6
57 39 3
57 41 10
57 44 5
57 45 3
57 49 8
57 50 3
57 52 3
57 53 4
57 54 5
58 0 9
58 1 7
58 2 7
58 4 4
58 7 10
58 8 8
58 9 5
58 10 1
58 11 3
58 12 2
58 13 7
58 15 9
58 16 8
58 17 4
58 19 1
58 21 10
58 23 6
58 24 7
58 25 9
58 26 4
58 28 6
58 29 8
58 30 6
58 32 1
58 33 6
58 36 9
58 37 1
58 38 6
58 41 4
58 44 1
58 45 7
58 46 1
58 47 4
58 48 9
58 50 2
58 51 7
58 55 6
58 56 4
59 0 7
59 1 7
59 2 4
59 3 5
59 5 3
59 7 1
59 11 7
59 12 3
59 13 9
59 14 8
59 15 7
59 21 1
59 22 7
59 24 7
59 25 5
59 29 9
59 31 6
59 32 9
59 33 9
59 35 10
59 37 5
59 38 8
59 39 4
59 41 4
59 44 1
59 47 1
59 48 9
59 50 6
59 51 9
59 52 3
59 54 10
59 55 4
59 56 3
59 58 1
